0 89 
1 91 
2 89 
3 90 
4 89 
5 83 
6 79 
7 82 
8 78 
9 76 
10 73 
11 72 
12 75 
13 71 
14 74 
15 72 
16 66 
17 64 
18 63 
19 61 
20 60 
21 59 
22 58 
23 59 
24 59 
25 57 
26 54 
27 50 
28 47 
29 48 
30 45 
31 46 
32 45 
33 45 
34 44 
35 42 
36 38 
37 39 
38 37 
39 35 
40 35 
41 34 
42 35 
43 31 
44 33 
45 32 
46 29 
47 28 
48 27 
49 27 
50 29 
51 25 
52 22 
53 20 
54 19 
55 16 
56 13 
57 9 
58 8 
59 6 
60 5 
61 4 
62 3 
63 1 
64 1 
65 1 
66 0 
67 0 

